parameter b(v,a)/ 
101.1 1,
101.2 1,
101.3 1,
101.4 1,
101.5 1,
101.6 1,
101.7 1,
101.8 1,
101.9 1,
101.10 1,
101.11 1,
101.12 1,
101.13 1,
101.14 1,
101.15 1,
101.31 1,
102.16 1,
102.17 1,
102.18 1,
102.19 1,
102.20 1,
102.21 1,
102.22 1,
102.23 1,
102.24 1,
102.25 1,
102.32 1,
103.26 1,
103.27 1,
103.28 1,
103.29 1,
103.30 1,
103.33 1,
500.31 -1,
500.32 -1,
500.33 -1,
401.1 -1,
401.2 -1,
401.3 -1,
401.4 -1,
401.5 -1,
401.6 -1,
401.7 -1,
401.8 -1,
401.9 -1,
401.10 -1,
401.16 -1,
401.17 -1,
401.18 -1,
401.19 -1,
401.26 -1,
401.34 -1,
402.11 -1,
402.12 -1,
402.13 -1,
402.20 -1,
402.21 -1,
402.22 -1,
402.23 -1,
402.27 -1,
402.28 -1,
402.35 -1,
403.14 -1,
403.15 -1,
403.24 -1,
403.25 -1,
403.29 -1,
403.30 -1,
403.36 -1,
500.34 1,
500.35 1,
500.36 1
/;